unsat
(:max-memory         18.05
 :memory             17.95
 :nlsat-conflicts    3
 :nlsat-propagations 7
 :nlsat-stages       4
 :num-allocs         27617
 :rlimit-count       1761
 :time               0.00
 :total-time         0.01)
